p tw 80 8401 2 
1 42 
1 43 
1 45 
1 48 
1 49 
1 52 
1 54 
1 55 
1 58 
1 59 
1 61 
1 63 
1 65 
1 67 
1 69 
1 72 
1 73 
1 76 
1 77 
1 79 
2 41 
2 44 
2 46 
2 47 
2 50 
2 51 
2 53 
2 56 
2 57 
2 60 
2 62 
2 64 
2 66 
2 68 
2 70 
2 71 
2 74 
2 75 
2 78 
2 80 
3 4 
3 42 
3 44 
3 45 
3 48 
3 49 
3 52 
3 53 
3 56 
3 58 
3 59 
3 62 
3 64 
3 66 
3 68 
3 70 
3 72 
3 74 
3 76 
3 78 
3 79 
4 41 
4 43 
4 46 
4 47 
4 50 
4 51 
4 54 
4 55 
4 57 
4 60 
4 61 
4 63 
4 65 
4 67 
4 69 
4 71 
4 73 
4 75 
4 77 
4 80 
5 6 
5 42 
5 44 
5 46 
5 48 
5 50 
5 51 
5 54 
5 56 
5 58 
5 60 
5 62 
5 63 
5 65 
5 68 
5 69 
5 72 
5 73 
5 76 
5 78 
5 80 
6 41 
6 43 
6 45 
6 47 
6 49 
6 52 
6 53 
6 55 
6 57 
6 59 
6 61 
6 64 
6 66 
6 67 
6 70 
6 71 
6 74 
6 75 
6 77 
6 79 
7 8 
7 41 
7 44 
7 45 
7 47 
7 49 
7 52 
7 54 
7 55 
7 58 
7 60 
7 61 
7 64 
7 66 
7 68 
7 69 
7 72 
7 73 
7 75 
7 78 
7 80 
8 42 
8 43 
8 46 
8 48 
8 50 
8 51 
8 53 
8 56 
8 57 
8 59 
8 62 
8 63 
8 65 
8 67 
8 70 
8 71 
8 74 
8 76 
8 77 
8 79 
9 10 
9 42 
9 43 
9 45 
9 47 
9 50 
9 51 
9 53 
9 55 
9 58 
9 60 
9 62 
9 64 
9 65 
9 67 
9 69 
9 72 
9 74 
9 75 
9 78 
9 79 
10 41 
10 44 
10 46 
10 48 
10 49 
10 52 
10 54 
10 56 
10 57 
10 59 
10 61 
10 63 
10 66 
10 68 
10 70 
10 71 
10 73 
10 76 
10 77 
10 80 
11 12 
11 41 
11 43 
11 45 
11 48 
11 49 
11 51 
11 54 
11 55 
11 57 
11 60 
11 62 
11 63 
11 66 
11 68 
11 69 
11 71 
11 74 
11 76 
11 78 
11 79 
12 42 
12 44 
12 46 
12 47 
12 50 
12 52 
12 53 
12 56 
12 58 
12 59 
12 61 
12 64 
12 65 
12 67 
12 70 
12 72 
12 73 
12 75 
12 77 
12 80 
13 14 
13 42 
13 44 
13 45 
13 48 
13 50 
13 51 
13 54 
13 56 
13 57 
13 59 
13 61 
13 64 
13 66 
13 67 
13 69 
13 71 
13 73 
13 75 
13 78 
13 79 
14 41 
14 43 
14 46 
14 47 
14 49 
14 52 
14 53 
14 55 
14 58 
14 60 
14 62 
14 63 
14 65 
14 68 
14 70 
14 72 
14 74 
14 76 
14 77 
14 80 
15 16 
15 42 
15 44 
15 46 
15 48 
15 49 
15 51 
15 54 
15 55 
15 57 
15 60 
15 61 
15 64 
15 65 
15 68 
15 70 
15 72 
15 74 
15 75 
15 77 
15 79 
16 41 
16 43 
16 45 
16 47 
16 50 
16 52 
16 53 
16 56 
16 58 
16 59 
16 62 
16 63 
16 66 
16 67 
16 69 
16 71 
16 73 
16 76 
16 78 
16 80 
17 18 
17 42 
17 43 
17 45 
17 47 
17 49 
17 51 
17 54 
17 56 
17 58 
17 59 
17 61 
17 63 
17 65 
17 68 
17 70 
17 71 
17 74 
17 75 
17 78 
17 80 
18 41 
18 44 
18 46 
18 48 
18 50 
18 52 
18 53 
18 55 
18 57 
18 60 
18 62 
18 64 
18 66 
18 67 
18 69 
18 72 
18 73 
18 76 
18 77 
18 79 
19 20 
19 41 
19 44 
19 45 
19 48 
19 50 
19 51 
19 54 
19 55 
19 58 
19 59 
19 62 
19 63 
19 66 
19 67 
19 70 
19 72 
19 74 
19 75 
19 77 
19 80 
20 42 
20 43 
20 46 
20 47 
20 49 
20 52 
20 53 
20 56 
20 57 
20 60 
20 61 
20 64 
20 65 
20 68 
20 69 
20 71 
20 73 
20 76 
20 78 
20 79 
21 22 
21 41 
21 43 
21 46 
21 48 
21 49 
21 52 
21 54 
21 56 
21 57 
21 59 
21 62 
21 64 
21 65 
21 67 
21 69 
21 72 
21 74 
21 75 
21 78 
21 80 
22 42 
22 44 
22 45 
22 47 
22 50 
22 51 
22 53 
22 55 
22 58 
22 60 
22 61 
22 63 
22 66 
22 68 
22 70 
22 71 
22 73 
22 76 
22 77 
22 79 
23 24 
23 42 
23 43 
23 46 
23 47 
23 50 
23 52 
23 54 
23 55 
23 57 
23 59 
23 62 
23 63 
23 66 
23 68 
23 70 
23 72 
23 73 
23 75 
23 78 
23 79 
24 41 
24 44 
24 45 
24 48 
24 49 
24 51 
24 53 
24 56 
24 58 
24 60 
24 61 
24 64 
24 65 
24 67 
24 69 
24 71 
24 74 
24 76 
24 77 
24 80 
25 26 
25 41 
25 43 
25 45 
25 48 
25 50 
25 51 
25 53 
25 55 
25 57 
25 59 
25 61 
25 64 
25 65 
25 68 
25 70 
25 72 
25 73 
25 76 
25 78 
25 80 
26 42 
26 44 
26 46 
26 47 
26 49 
26 52 
26 54 
26 56 
26 58 
26 60 
26 62 
26 63 
26 66 
26 67 
26 69 
26 71 
26 74 
26 75 
26 77 
26 79 
27 28 
27 41 
27 44 
27 46 
27 47 
27 49 
27 51 
27 54 
27 55 
27 58 
27 59 
27 62 
27 64 
27 65 
27 67 
27 70 
27 71 
27 73 
27 76 
27 78 
27 79 
28 42 
28 43 
28 45 
28 48 
28 50 
28 52 
28 53 
28 56 
28 57 
28 60 
28 61 
28 63 
28 66 
28 68 
28 69 
28 72 
28 74 
28 75 
28 77 
28 80 
29 30 
29 41 
29 44 
29 45 
29 47 
29 50 
29 52 
29 54 
29 56 
29 57 
29 60 
29 61 
29 63 
29 65 
29 67 
29 70 
29 72 
29 74 
29 76 
29 78 
29 79 
30 42 
30 43 
30 46 
30 48 
30 49 
30 51 
30 53 
30 55 
30 58 
30 59 
30 62 
30 64 
30 66 
30 68 
30 69 
30 71 
30 73 
30 75 
30 77 
30 80 
31 32 
31 42 
31 44 
31 46 
31 47 
31 49 
31 51 
31 53 
31 55 
31 57 
31 59 
31 61 
31 63 
31 66 
31 67 
31 69 
31 72 
31 74 
31 76 
31 78 
31 80 
32 41 
32 43 
32 45 
32 48 
32 50 
32 52 
32 54 
32 56 
32 58 
32 60 
32 62 
32 64 
32 65 
32 68 
32 70 
32 71 
32 73 
32 75 
32 77 
32 79 
33 34 
33 41 
33 43 
33 46 
33 47 
33 50 
33 51 
33 54 
33 56 
33 58 
33 59 
33 61 
33 64 
33 66 
33 68 
33 69 
33 72 
33 74 
33 76 
33 77 
33 79 
34 42 
34 44 
34 45 
34 48 
34 49 
34 52 
34 53 
34 55 
34 57 
34 60 
34 62 
34 63 
34 65 
34 67 
34 70 
34 71 
34 73 
34 75 
34 78 
34 80 
35 36 
35 42 
35 43 
35 45 
35 47 
35 49 
35 51 
35 54 
35 56 
35 57 
35 60 
35 62 
35 64 
35 66 
35 67 
35 70 
35 72 
35 73 
35 76 
35 77 
35 80 
36 41 
36 44 
36 46 
36 48 
36 50 
36 52 
36 53 
36 55 
36 58 
36 59 
36 61 
36 63 
36 65 
36 68 
36 69 
36 71 
36 74 
36 75 
36 78 
36 79 
37 38 
37 42 
37 43 
37 46 
37 48 
37 50 
37 52 
37 54 
37 55 
37 58 
37 60 
37 61 
37 64 
37 66 
37 67 
37 70 
37 71 
37 74 
37 76 
37 78 
37 80 
38 41 
38 44 
38 45 
38 47 
38 49 
38 51 
38 53 
38 56 
38 57 
38 59 
38 62 
38 63 
38 65 
38 68 
38 69 
38 72 
38 73 
38 75 
38 77 
38 79 
39 40 
39 41 
39 43 
39 46 
39 48 
39 49 
39 51 
39 53 
39 56 
39 58 
39 60 
39 61 
39 63 
39 66 
39 67 
39 70 
39 72 
39 73 
39 75 
39 78 
39 79 
40 42 
40 44 
40 45 
40 47 
40 50 
40 52 
40 54 
40 55 
40 57 
40 59 
40 62 
40 64 
40 65 
40 68 
40 69 
40 71 
40 74 
40 76 
40 77 
40 80 
41 42 
43 44 
45 46 
47 48 
49 50 
51 52 
53 54 
55 56 
57 58 
59 60 
61 62 
63 64 
65 66 
67 68 
69 70 
71 72 
73 74 
75 76 
77 78 
79 80 
